certificates/rado_a13_c125_N39.cnf
c Rad2 upper bound instance: x1 + 13*x2 - x3 = 125, interval [1,39]
p cnf 39 234
1 6 10 0
-1 -6 -10 0
1 11 19 0
-1 -11 -19 0
1 12 32 0
-1 -12 -32 0
2 7 10 0
-2 -7 -10 0
2 11 20 0
-2 -11 -20 0
2 12 33 0
-2 -12 -33 0
3 8 10 0
-3 -8 -10 0
3 11 21 0
-3 -11 -21 0
3 12 34 0
-3 -12 -34 0
4 9 10 0
-4 -9 -10 0
4 11 22 0
-4 -11 -22 0
4 12 35 0
-4 -12 -35 0
5 10 0
-5 -10 0
5 11 23 0
-5 -11 -23 0
5 12 36 0
-5 -12 -36 0
6 10 11 0
-6 -10 -11 0
6 11 24 0
-6 -11 -24 0
6 12 37 0
-6 -12 -37 0
7 10 12 0
-7 -10 -12 0
7 11 25 0
-7 -11 -25 0
7 12 38 0
-7 -12 -38 0
8 10 13 0
-8 -10 -13 0
8 11 26 0
-8 -11 -26 0
8 12 39 0
-8 -12 -39 0
1 9 0
-1 -9 0
9 10 14 0
-9 -10 -14 0
9 11 27 0
-9 -11 -27 0
2 9 10 0
-2 -9 -10 0
10 15 0
-10 -15 0
10 11 28 0
-10 -11 -28 0
3 9 11 0
-3 -9 -11 0
10 11 16 0
-10 -11 -16 0
11 29 0
-11 -29 0
4 9 12 0
-4 -9 -12 0
10 12 17 0
-10 -12 -17 0
11 12 30 0
-11 -12 -30 0
5 9 13 0
-5 -9 -13 0
10 13 18 0
-10 -13 -18 0
11 13 31 0
-11 -13 -31 0
6 9 14 0
-6 -9 -14 0
10 14 19 0
-10 -14 -19 0
11 14 32 0
-11 -14 -32 0
7 9 15 0
-7 -9 -15 0
10 15 20 0
-10 -15 -20 0
11 15 33 0
-11 -15 -33 0
8 9 16 0
-8 -9 -16 0
10 16 21 0
-10 -16 -21 0
11 16 34 0
-11 -16 -34 0
9 17 0
-9 -17 0
10 17 22 0
-10 -17 -22 0
11 17 35 0
-11 -17 -35 0
9 10 18 0
-9 -10 -18 0
10 18 23 0
-10 -18 -23 0
11 18 36 0
-11 -18 -36 0
9 11 19 0
-9 -11 -19 0
10 19 24 0
-10 -19 -24 0
11 19 37 0
-11 -19 -37 0
9 12 20 0
-9 -12 -20 0
10 20 25 0
-10 -20 -25 0
11 20 38 0
-11 -20 -38 0
9 13 21 0
-9 -13 -21 0
10 21 26 0
-10 -21 -26 0
11 21 39 0
-11 -21 -39 0
1 8 22 0
-1 -8 -22 0
9 14 22 0
-9 -14 -22 0
10 22 27 0
-10 -22 -27 0
2 8 23 0
-2 -8 -23 0
9 15 23 0
-9 -15 -23 0
10 23 28 0
-10 -23 -28 0
3 8 24 0
-3 -8 -24 0
9 16 24 0
-9 -16 -24 0
10 24 29 0
-10 -24 -29 0
4 8 25 0
-4 -8 -25 0
9 17 25 0
-9 -17 -25 0
10 25 30 0
-10 -25 -30 0
5 8 26 0
-5 -8 -26 0
9 18 26 0
-9 -18 -26 0
10 26 31 0
-10 -26 -31 0
6 8 27 0
-6 -8 -27 0
9 19 27 0
-9 -19 -27 0
10 27 32 0
-10 -27 -32 0
7 8 28 0
-7 -8 -28 0
9 20 28 0
-9 -20 -28 0
10 28 33 0
-10 -28 -33 0
8 29 0
-8 -29 0
9 21 29 0
-9 -21 -29 0
10 29 34 0
-10 -29 -34 0
8 9 30 0
-8 -9 -30 0
9 22 30 0
-9 -22 -30 0
10 30 35 0
-10 -30 -35 0
8 10 31 0
-8 -10 -31 0
9 23 31 0
-9 -23 -31 0
10 31 36 0
-10 -31 -36 0
8 11 32 0
-8 -11 -32 0
9 24 32 0
-9 -24 -32 0
10 32 37 0
-10 -32 -37 0
8 12 33 0
-8 -12 -33 0
9 25 33 0
-9 -25 -33 0
10 33 38 0
-10 -33 -38 0
8 13 34 0
-8 -13 -34 0
9 26 34 0
-9 -26 -34 0
10 34 39 0
-10 -34 -39 0
1 7 35 0
-1 -7 -35 0
8 14 35 0
-8 -14 -35 0
9 27 35 0
-9 -27 -35 0
2 7 36 0
-2 -7 -36 0
8 15 36 0
-8 -15 -36 0
9 28 36 0
-9 -28 -36 0
3 7 37 0
-3 -7 -37 0
8 16 37 0
-8 -16 -37 0
9 29 37 0
-9 -29 -37 0
4 7 38 0
-4 -7 -38 0
8 17 38 0
-8 -17 -38 0
9 30 38 0
-9 -30 -38 0
5 7 39 0
-5 -7 -39 0
8 18 39 0
-8 -18 -39 0
9 31 39 0
-9 -31 -39 0
