certificates/rado_a13_c125_N39.drat
10 -36 -39 0
-10 -38 -39 0
10 -39 0
d 10 -36 -39 0
36 -39 0
-12 -39 0
-10 -39 0
d -34 -10 -39 0
-39 0
12 0
10 -8 0
-10 0
5 0
15 0
34 0
-8 0
-36 0
-3 0
0
